# B3LYP/6-31G(d)

title

0 1
H        0.00     0.00     0.00
C       -1.10     0.00     0.00
H       -1.47     0.73     0.73
H       -1.47     0.27    -1.00
H       -1.47    -1.00     0.27

