# B3LYP/6-31G(d)

title

0 1
H	0.00	0.00	0.00
C	-1.06	0.00	0.00
C	-1.75	0.85	0.85
H	-1.22	1.49	1.49
C	-3.13	0.84	0.84
C	-3.88	1.76	1.76
H	-4.06	2.72	1.25
H	-4.84	1.30	2.04
H	-3.29	1.94	2.67
C	-3.82	0.00	0.00
H	-4.88	0.00	0.00
C	-3.13	-0.85	-0.85
C	-3.88	-1.76	-1.76
H	-4.06	-1.25	-2.72
H	-3.29	-2.67	-1.94
H	-4.84	-2.04	-1.30
C	-1.75	-0.85	-0.85
H	-1.22	-1.49	-1.49

