# B3LYP/6-31G(d)

title

0 1
H        0.00     0.00     0.00
H       -0.66     0.00     0.00

