# B3LYP/6-31G(d)

title

0 1
H	0.00	0.00	0.00
C	-1.06	0.00	0.00
C	-1.75	0.85	0.85
H	-1.22	1.49	1.49
C	-3.13	0.84	0.84
H	-3.66	1.49	1.49
C	-3.82	0.00	0.00
H	-4.88	0.00	0.00
C	-3.13	-0.85	-0.85
H	-3.66	-1.49	-1.49
C	-1.75	-0.85	-0.85
H	-1.22	-1.49	-1.49

