# B3LYP/6-31G(d)

title

0 1
H	0.00	0.00	0.00
C	-1.10	0.00	0.00
H	-1.47	0.27	-1.00
H	-1.47	-1.00	0.27
C	-1.60	1.00	1.00
C	-1.83	2.31	0.61
H	-1.65	2.60	-0.39
C	-2.29	3.22	1.54
H	-2.47	4.23	1.24
C	-2.52	2.84	2.84
H	-2.87	3.55	3.55
C	-2.29	1.53	3.23
H	-2.47	1.24	4.23
C	-1.83	0.61	2.31
H	-1.65	-0.39	2.60

